Using license file /home/benedond/gurobi.lic
Using gurobi.env file
Set parameter Threads to value 1
Academic license - for non-commercial use only
Changed value of parameter TimeLimit to 300.0
   Prev: inf  Min: 0.0  Max: inf  Default: inf
Gurobi Optimizer version 9.0.1 build v9.0.1rc0 (linux64)
Optimize a model with 303 rows, 252 columns and 1144 nonzeros
Model fingerprint: 0x0cb57141
Variable types: 20 continuous, 232 integer (232 binary)
Coefficient statistics:
  Matrix range     [2e-01, 4e+02]
  Objective range  [3e-02, 1e+00]
  Bounds range     [1e+00, 1e+00]
  RHS range        [1e+00, 4e+02]
Found heuristic solution: objective 5.1441163
Presolve removed 71 rows and 49 columns
Presolve time: 0.02s
Presolved: 232 rows, 203 columns, 1573 nonzeros
Variable types: 16 continuous, 187 integer (187 binary)

Root relaxation: objective 3.456095e+00, 231 iterations, 0.01 seconds

    Nodes    |    Current Node    |     Objective Bounds      |     Work
 Expl Unexpl |  Obj  Depth IntInf | Incumbent    BestBd   Gap | It/Node Time

     0     0    3.45610    0   45    5.14412    3.45610  32.8%     -    0s
     0     0    3.59683    0   41    5.14412    3.59683  30.1%     -    0s
H    0     0                       5.0087674    3.59683  28.2%     -    0s
     0     0    3.64341    0   47    5.00877    3.64341  27.3%     -    0s
     0     0    3.66481    0   51    5.00877    3.66481  26.8%     -    0s
H    0     0                       4.8440930    3.66481  24.3%     -    0s
H    0     0                       4.3778372    3.66481  16.3%     -    0s
     0     0    3.66826    0   55    4.37784    3.66826  16.2%     -    0s
     0     0    3.69254    0   58    4.37784    3.69254  15.7%     -    0s
H    0     0                       4.2974419    3.69254  14.1%     -    0s
H    0     0                       4.1761628    3.69254  11.6%     -    0s
     0     0    3.70536    0   63    4.17616    3.70536  11.3%     -    0s
     0     0    3.70850    0   70    4.17616    3.70850  11.2%     -    0s
     0     0    3.70907    0   68    4.17616    3.70907  11.2%     -    0s
     0     0    3.70907    0   69    4.17616    3.70907  11.2%     -    0s
     0     0    3.72524    0   72    4.17616    3.72524  10.8%     -    0s
     0     0    3.73740    0   72    4.17616    3.73740  10.5%     -    0s
     0     0    3.73806    0   71    4.17616    3.73806  10.5%     -    0s
     0     0    3.73980    0   64    4.17616    3.73980  10.4%     -    0s
     0     0    3.74156    0   63    4.17616    3.74156  10.4%     -    0s
     0     0    3.74367    0   63    4.17616    3.74367  10.4%     -    0s
     0     0    3.74595    0   63    4.17616    3.74595  10.3%     -    0s
     0     0    3.74599    0   63    4.17616    3.74599  10.3%     -    0s
     0     0    3.74948    0   66    4.17616    3.74948  10.2%     -    0s
     0     0    3.75068    0   68    4.17616    3.75068  10.2%     -    0s
     0     0    3.75111    0   68    4.17616    3.75111  10.2%     -    0s
     0     0    3.75116    0   64    4.17616    3.75116  10.2%     -    0s
     0     0    3.76745    0   48    4.17616    3.76745  9.79%     -    0s
     0     0    3.76786    0   51    4.17616    3.76786  9.78%     -    0s
     0     0    3.76825    0   51    4.17616    3.76825  9.77%     -    0s
     0     0    3.76825    0   46    4.17616    3.76825  9.77%     -    0s
     0     0    3.77050    0   56    4.17616    3.77050  9.71%     -    0s
     0     0    3.77155    0   55    4.17616    3.77155  9.69%     -    0s
     0     0    3.77158    0   49    4.17616    3.77158  9.69%     -    0s
     0     0    3.77321    0   51    4.17616    3.77321  9.65%     -    0s
     0     0    3.77496    0   48    4.17616    3.77496  9.61%     -    0s
     0     0    3.77657    0   52    4.17616    3.77657  9.57%     -    0s
     0     0    3.77894    0   61    4.17616    3.77894  9.51%     -    0s
     0     0    3.77894    0   61    4.17616    3.77894  9.51%     -    0s
     0     0    3.78010    0   60    4.17616    3.78010  9.48%     -    0s
     0     0    3.78010    0   47    4.17616    3.78010  9.48%     -    0s
H    0     0                       4.1089535    3.78010  8.00%     -    0s
     0     0    3.99360    0   17    4.10895    3.99360  2.81%     -    0s
     0     0     cutoff    0         4.10895    4.10895  0.00%     -    0s

Cutting planes:
  Cover: 1
  MIR: 1
  RLT: 2
  Relax-and-lift: 4

Explored 1 nodes (1207 simplex iterations) in 0.35 seconds
Thread count was 1 (of 4 available processors)

Solution count 7: 4.10895 4.17616 4.29744 ... 5.14412

Optimal solution found (tolerance 1.00e-04)
Best objective 4.108953487908e+00, best bound 4.108953487908e+00, gap 0.0000%
